10J3M/DAT/10J3MNNR-9.dat
10 3
23.7187 13.7701
24.9667 20.3743
19.368 0.731
30.4369 15.2446
29.3584 17.068
22.8996 49.087
20.4648 10.6712
26.8808 38.5492
26.9216 14.9851
20.4989 0.0767
180.5572