10J3M/SOL/10J3MNNR-9.sol
solution status: optimal solution found
objective value:                     77.2923666666667
x#1#2                                               1 	(obj:0)
x#2#1                                               1 	(obj:0)
x#3#3                                               1 	(obj:0)
x#4#2                                               1 	(obj:0)
x#5#2                               0.108407266582172 	(obj:0)
x#5#3                               0.891592733417828 	(obj:0)
x#6#1                               0.610303292486256 	(obj:0)
x#6#2                               0.389696707513743 	(obj:0)
x#7#3                                               1 	(obj:0)
x#8#1                                               1 	(obj:0)
x#9#2                                               1 	(obj:0)
x#10#1                                              1 	(obj:0)
z                                    77.2923666666667 	(obj:1)
